35 35
22
3 3 14 0
3 4 18 31
3 5 32 0
3 6 29 29
3 7 18 24
3 8 32 27
3 9 14 3
3 10 29 19
3 12 18 12
3 19 29 0
3 22 32 5
4 3 21 32
4 4 17 8
4 5 21 7
4 6 14 29
4 7 21 0
4 8 17 0
4 12 25 0
4 17 14 12
4 20 21 12
4 23 25 12
14 35 0 0
